FourierSAT_Github_AIJ/benchmarks/MAXSAT_benchmarks/3/bipartite/maxcut-140-630-0.8/maxcut-140-630-0.8-18.cnf
c strEdges: 125  randomEdges: 504 
c degrees:  1  2 
c girth: Inf max: -43.604516  
c Hgirth mixed MAXCUT instance
c generated from an undirected graph
c to solve unweighted MaxCut
p cnf 140 1258
96 123 0
-96 -123 0
96 7 0
-96 -7 0
74 1 0
-74 -1 0
74 13 0
-74 -13 0
46 45 0
-46 -45 0
46 6 0
-46 -6 0
15 38 0
-15 -38 0
15 17 0
-15 -17 0
138 115 0
-138 -115 0
129 48 0
-129 -48 0
129 113 0
-129 -113 0
44 42 0
-44 -42 0
44 58 0
-44 -58 0
112 83 0
-112 -83 0
112 127 0
-112 -127 0
32 29 0
-32 -29 0
108 13 0
-108 -13 0
120 50 0
-120 -50 0
125 88 0
-125 -88 0
125 47 0
-125 -47 0
52 14 0
-52 -14 0
52 38 0
-52 -38 0
121 97 0
-121 -97 0
121 134 0
-121 -134 0
3 11 0
-3 -11 0
3 133 0
-3 -133 0
95 47 0
-95 -47 0
95 128 0
-95 -128 0
109 127 0
-109 -127 0
109 48 0
-109 -48 0
107 80 0
-107 -80 0
107 76 0
-107 -76 0
5 65 0
-5 -65 0
5 37 0
-5 -37 0
94 106 0
-94 -106 0
94 115 0
-94 -115 0
2 133 0
-2 -133 0
2 114 0
-2 -114 0
41 61 0
-41 -61 0
41 102 0
-41 -102 0
25 104 0
-25 -104 0
111 67 0
-111 -67 0
111 104 0
-111 -104 0
55 62 0
-55 -62 0
23 116 0
-23 -116 0
23 51 0
-23 -51 0
77 40 0
-77 -40 0
77 122 0
-77 -122 0
53 128 0
-53 -128 0
53 29 0
-53 -29 0
78 98 0
-78 -98 0
78 28 0
-78 -28 0
10 93 0
-10 -93 0
10 136 0
-10 -136 0
118 43 0
-118 -43 0
118 69 0
-118 -69 0
12 24 0
-12 -24 0
82 113 0
-82 -113 0
71 84 0
-71 -84 0
71 8 0
-71 -8 0
26 132 0
-26 -132 0
26 57 0
-26 -57 0
101 136 0
-101 -136 0
101 72 0
-101 -72 0
79 72 0
-79 -72 0
79 83 0
-79 -83 0
64 37 0
-64 -37 0
64 11 0
-64 -11 0
20 58 0
-20 -58 0
20 117 0
-20 -117 0
131 49 0
-131 -49 0
131 42 0
-131 -42 0
86 134 0
-86 -134 0
137 22 0
-137 -22 0
19 6 0
-19 -6 0
19 123 0
-19 -123 0
90 36 0
-90 -36 0
90 106 0
-90 -106 0
56 140 0
-56 -140 0
103 135 0
-103 -135 0
75 16 0
-75 -16 0
75 140 0
-75 -140 0
85 27 0
-85 -27 0
85 116 0
-85 -116 0
4 68 0
-4 -68 0
39 9 0
-39 -9 0
39 16 0
-39 -16 0
119 122 0
-119 -122 0
119 24 0
-119 -24 0
63 69 0
-63 -69 0
63 67 0
-63 -67 0
54 102 0
-54 -102 0
54 50 0
-54 -50 0
18 114 0
-18 -114 0
18 97 0
-18 -97 0
66 105 0
-66 -105 0
66 59 0
-66 -59 0
139 126 0
-139 -126 0
139 9 0
-139 -9 0
91 21 0
-91 -21 0
91 124 0
-91 -124 0
35 7 0
-35 -7 0
35 126 0
-35 -126 0
30 8 0
-30 -8 0
30 49 0
-30 -49 0
89 117 0
-89 -117 0
89 80 0
-89 -80 0
34 76 0
-34 -76 0
31 99 0
-31 -99 0
31 93 0
-31 -93 0
70 81 0
-70 -81 0
130 59 0
-130 -59 0
130 88 0
-130 -88 0
60 33 0
-60 -33 0
60 65 0
-60 -65 0
73 17 0
-73 -17 0
73 40 0
-73 -40 0
110 124 0
-110 -124 0
110 14 0
-110 -14 0
92 28 0
-92 -28 0
92 27 0
-92 -27 0
87 57 0
-87 -57 0
87 68 0
-87 -68 0
100 51 0
-100 -51 0
100 33 0
-100 -33 0
77 102 0
-77 -102 0
131 116 0
-131 -116 0
79 20 0
-79 -20 0
129 120 0
-129 -120 0
34 29 0
-34 -29 0
56 63 0
-56 -63 0
107 127 0
-107 -127 0
116 69 0
-116 -69 0
102 28 0
-102 -28 0
129 89 0
-129 -89 0
108 48 0
-108 -48 0
2 38 0
-2 -38 0
87 133 0
-87 -133 0
107 119 0
-107 -119 0
6 126 0
-6 -126 0
31 47 0
-31 -47 0
96 87 0
-96 -87 0
36 27 0
-36 -27 0
73 97 0
-73 -97 0
45 134 0
-45 -134 0
30 13 0
-30 -13 0
46 81 0
-46 -81 0
64 67 0
-64 -67 0
49 134 0
-49 -134 0
48 51 0
-48 -51 0
136 16 0
-136 -16 0
13 72 0
-13 -72 0
106 17 0
-106 -17 0
113 27 0
-113 -27 0
75 24 0
-75 -24 0
70 8 0
-70 -8 0
88 69 0
-88 -69 0
52 13 0
-52 -13 0
66 133 0
-66 -133 0
2 33 0
-2 -33 0
53 64 0
-53 -64 0
121 67 0
-121 -67 0
137 90 0
-137 -90 0
108 40 0
-108 -40 0
10 37 0
-10 -37 0
44 29 0
-44 -29 0
25 64 0
-25 -64 0
23 77 0
-23 -77 0
91 102 0
-91 -102 0
52 114 0
-52 -114 0
116 33 0
-116 -33 0
131 60 0
-131 -60 0
46 57 0
-46 -57 0
14 37 0
-14 -37 0
104 40 0
-104 -40 0
56 135 0
-56 -135 0
66 17 0
-66 -17 0
91 72 0
-91 -72 0
36 76 0
-36 -76 0
131 13 0
-131 -13 0
100 67 0
-100 -67 0
82 21 0
-82 -21 0
54 97 0
-54 -97 0
94 47 0
-94 -47 0
32 21 0
-32 -21 0
107 114 0
-107 -114 0
26 126 0
-26 -126 0
45 33 0
-45 -33 0
88 72 0
-88 -72 0
46 21 0
-46 -21 0
5 98 0
-5 -98 0
38 124 0
-38 -124 0
89 34 0
-89 -34 0
119 38 0
-119 -38 0
11 6 0
-11 -6 0
109 89 0
-109 -89 0
70 38 0
-70 -38 0
64 45 0
-64 -45 0
96 75 0
-96 -75 0
78 69 0
-78 -69 0
111 102 0
-111 -102 0
23 61 0
-23 -61 0
98 99 0
-98 -99 0
77 14 0
-77 -14 0
39 105 0
-39 -105 0
116 57 0
-116 -57 0
53 11 0
-53 -11 0
53 28 0
-53 -28 0
20 132 0
-20 -132 0
25 34 0
-25 -34 0
100 116 0
-100 -116 0
136 99 0
-136 -99 0
132 105 0
-132 -105 0
73 28 0
-73 -28 0
85 38 0
-85 -38 0
35 60 0
-35 -60 0
36 16 0
-36 -16 0
45 116 0
-45 -116 0
38 16 0
-38 -16 0
85 119 0
-85 -119 0
109 59 0
-109 -59 0
71 61 0
-71 -61 0
129 5 0
-129 -5 0
112 17 0
-112 -17 0
112 84 0
-112 -84 0
118 92 0
-118 -92 0
72 99 0
-72 -99 0
44 124 0
-44 -124 0
78 131 0
-78 -131 0
109 111 0
-109 -111 0
23 131 0
-23 -131 0
123 7 0
-123 -7 0
41 79 0
-41 -79 0
87 8 0
-87 -8 0
56 27 0
-56 -27 0
120 122 0
-120 -122 0
19 90 0
-19 -90 0
74 10 0
-74 -10 0
68 117 0
-68 -117 0
86 30 0
-86 -30 0
91 65 0
-91 -65 0
120 121 0
-120 -121 0
26 28 0
-26 -28 0
23 102 0
-23 -102 0
115 36 0
-115 -36 0
87 76 0
-87 -76 0
90 85 0
-90 -85 0
112 10 0
-112 -10 0
121 66 0
-121 -66 0
129 133 0
-129 -133 0
107 105 0
-107 -105 0
65 81 0
-65 -81 0
115 61 0
-115 -61 0
86 17 0
-86 -17 0
104 98 0
-104 -98 0
11 105 0
-11 -105 0
31 45 0
-31 -45 0
84 57 0
-84 -57 0
108 122 0
-108 -122 0
32 126 0
-32 -126 0
82 60 0
-82 -60 0
11 37 0
-11 -37 0
60 126 0
-60 -126 0
121 62 0
-121 -62 0
19 127 0
-19 -127 0
39 14 0
-39 -14 0
54 29 0
-54 -29 0
26 72 0
-26 -72 0
12 30 0
-12 -30 0
52 48 0
-52 -48 0
15 84 0
-15 -84 0
86 137 0
-86 -137 0
15 124 0
-15 -124 0
106 69 0
-106 -69 0
68 9 0
-68 -9 0
38 14 0
-38 -14 0
60 22 0
-60 -22 0
79 87 0
-79 -87 0
92 127 0
-92 -127 0
73 68 0
-73 -68 0
79 31 0
-79 -31 0
107 37 0
-107 -37 0
10 104 0
-10 -104 0
53 134 0
-53 -134 0
130 92 0
-130 -92 0
125 20 0
-125 -20 0
25 133 0
-25 -133 0
66 38 0
-66 -38 0
83 16 0
-83 -16 0
26 84 0
-26 -84 0
27 68 0
-27 -68 0
125 87 0
-125 -87 0
29 97 0
-29 -97 0
95 105 0
-95 -105 0
41 101 0
-41 -101 0
111 76 0
-111 -76 0
2 26 0
-2 -26 0
92 37 0
-92 -37 0
41 97 0
-41 -97 0
53 131 0
-53 -131 0
23 50 0
-23 -50 0
62 59 0
-62 -59 0
120 80 0
-120 -80 0
109 21 0
-109 -21 0
129 8 0
-129 -8 0
90 27 0
-90 -27 0
4 51 0
-4 -51 0
136 126 0
-136 -126 0
63 83 0
-63 -83 0
46 36 0
-46 -36 0
115 29 0
-115 -29 0
82 86 0
-82 -86 0
129 90 0
-129 -90 0
75 124 0
-75 -124 0
69 33 0
-69 -33 0
75 49 0
-75 -49 0
48 61 0
-48 -61 0
80 76 0
-80 -76 0
19 110 0
-19 -110 0
131 18 0
-131 -18 0
96 23 0
-96 -23 0
120 58 0
-120 -58 0
2 82 0
-2 -82 0
12 35 0
-12 -35 0
32 68 0
-32 -68 0
3 137 0
-3 -137 0
102 33 0
-102 -33 0
70 42 0
-70 -42 0
77 49 0
-77 -49 0
119 61 0
-119 -61 0
32 59 0
-32 -59 0
10 35 0
-10 -35 0
136 17 0
-136 -17 0
88 59 0
-88 -59 0
82 61 0
-82 -61 0
18 47 0
-18 -47 0
139 69 0
-139 -69 0
82 85 0
-82 -85 0
74 12 0
-74 -12 0
90 66 0
-90 -66 0
56 39 0
-56 -39 0
55 83 0
-55 -83 0
84 7 0
-84 -7 0
108 24 0
-108 -24 0
54 72 0
-54 -72 0
35 61 0
-35 -61 0
46 18 0
-46 -18 0
46 48 0
-46 -48 0
19 59 0
-19 -59 0
20 37 0
-20 -37 0
112 51 0
-112 -51 0
129 45 0
-129 -45 0
25 126 0
-25 -126 0
64 131 0
-64 -131 0
103 132 0
-103 -132 0
85 34 0
-85 -34 0
42 49 0
-42 -49 0
46 42 0
-46 -42 0
80 33 0
-80 -33 0
132 9 0
-132 -9 0
112 33 0
-112 -33 0
62 99 0
-62 -99 0
119 84 0
-119 -84 0
129 64 0
-129 -64 0
3 131 0
-3 -131 0
1 132 0
-1 -132 0
55 64 0
-55 -64 0
101 140 0
-101 -140 0
32 14 0
-32 -14 0
48 113 0
-48 -113 0
5 77 0
-5 -77 0
90 47 0
-90 -47 0
112 115 0
-112 -115 0
137 17 0
-137 -17 0
34 68 0
-34 -68 0
74 104 0
-74 -104 0
115 80 0
-115 -80 0
70 132 0
-70 -132 0
121 29 0
-121 -29 0
100 36 0
-100 -36 0
16 59 0
-16 -59 0
96 116 0
-96 -116 0
134 124 0
-134 -124 0
70 87 0
-70 -87 0
139 134 0
-139 -134 0
91 81 0
-91 -81 0
131 21 0
-131 -21 0
4 83 0
-4 -83 0
43 117 0
-43 -117 0
53 6 0
-53 -6 0
26 134 0
-26 -134 0
50 33 0
-50 -33 0
132 28 0
-132 -28 0
103 83 0
-103 -83 0
43 6 0
-43 -6 0
111 49 0
-111 -49 0
43 36 0
-43 -36 0
86 73 0
-86 -73 0
40 8 0
-40 -8 0
52 119 0
-52 -119 0
20 100 0
-20 -100 0
12 64 0
-12 -64 0
130 57 0
-130 -57 0
38 29 0
-38 -29 0
120 107 0
-120 -107 0
123 43 0
-123 -43 0
133 61 0
-133 -61 0
26 65 0
-26 -65 0
31 124 0
-31 -124 0
40 117 0
-40 -117 0
46 17 0
-46 -17 0
87 16 0
-87 -16 0
107 87 0
-107 -87 0
120 59 0
-120 -59 0
8 51 0
-8 -51 0
25 28 0
-25 -28 0
65 106 0
-65 -106 0
82 48 0
-82 -48 0
137 50 0
-137 -50 0
63 60 0
-63 -60 0
108 19 0
-108 -19 0
88 16 0
-88 -16 0
27 7 0
-27 -7 0
30 22 0
-30 -22 0
85 84 0
-85 -84 0
30 113 0
-30 -113 0
129 20 0
-129 -20 0
139 49 0
-139 -49 0
66 123 0
-66 -123 0
94 61 0
-94 -61 0
38 28 0
-38 -28 0
130 93 0
-130 -93 0
37 81 0
-37 -81 0
91 93 0
-91 -93 0
95 88 0
-95 -88 0
66 24 0
-66 -24 0
115 122 0
-115 -122 0
19 8 0
-19 -8 0
26 68 0
-26 -68 0
41 50 0
-41 -50 0
71 98 0
-71 -98 0
130 97 0
-130 -97 0
58 17 0
-58 -17 0
25 4 0
-25 -4 0
94 13 0
-94 -13 0
52 73 0
-52 -73 0
93 33 0
-93 -33 0
41 85 0
-41 -85 0
101 114 0
-101 -114 0
137 56 0
-137 -56 0
138 94 0
-138 -94 0
77 69 0
-77 -69 0
96 31 0
-96 -31 0
66 47 0
-66 -47 0
77 124 0
-77 -124 0
10 87 0
-10 -87 0
72 21 0
-72 -21 0
41 76 0
-41 -76 0
42 99 0
-42 -99 0
83 14 0
-83 -14 0
63 114 0
-63 -114 0
45 83 0
-45 -83 0
125 30 0
-125 -30 0
111 85 0
-111 -85 0
105 59 0
-105 -59 0
80 28 0
-80 -28 0
90 70 0
-90 -70 0
120 2 0
-120 -2 0
109 49 0
-109 -49 0
63 40 0
-63 -40 0
138 35 0
-138 -35 0
110 133 0
-110 -133 0
90 34 0
-90 -34 0
31 24 0
-31 -24 0
83 116 0
-83 -116 0
87 36 0
-87 -36 0
23 16 0
-23 -16 0
14 140 0
-14 -140 0
109 102 0
-109 -102 0
1 124 0
-1 -124 0
23 69 0
-23 -69 0
55 115 0
-55 -115 0
45 40 0
-45 -40 0
35 8 0
-35 -8 0
37 134 0
-37 -134 0
82 80 0
-82 -80 0
100 88 0
-100 -88 0
74 135 0
-74 -135 0
92 126 0
-92 -126 0
2 16 0
-2 -16 0
52 87 0
-52 -87 0
116 113 0
-116 -113 0
13 122 0
-13 -122 0
29 14 0
-29 -14 0
66 83 0
-66 -83 0
78 19 0
-78 -19 0
90 83 0
-90 -83 0
138 57 0
-138 -57 0
19 72 0
-19 -72 0
112 95 0
-112 -95 0
20 106 0
-20 -106 0
32 79 0
-32 -79 0
86 42 0
-86 -42 0
37 58 0
-37 -58 0
121 53 0
-121 -53 0
45 81 0
-45 -81 0
3 20 0
-3 -20 0
73 50 0
-73 -50 0
44 54 0
-44 -54 0
112 81 0
-112 -81 0
48 135 0
-48 -135 0
139 47 0
-139 -47 0
94 122 0
-94 -122 0
125 11 0
-125 -11 0
10 1 0
-10 -1 0
125 109 0
-125 -109 0
102 117 0
-102 -117 0
55 36 0
-55 -36 0
137 28 0
-137 -28 0
138 102 0
-138 -102 0
139 73 0
-139 -73 0
96 54 0
-96 -54 0
4 18 0
-4 -18 0
3 34 0
-3 -34 0
82 34 0
-82 -34 0
79 130 0
-79 -130 0
90 1 0
-90 -1 0
52 33 0
-52 -33 0
70 59 0
-70 -59 0
18 21 0
-18 -21 0
70 22 0
-70 -22 0
47 49 0
-47 -49 0
137 123 0
-137 -123 0
74 81 0
-74 -81 0
82 83 0
-82 -83 0
96 124 0
-96 -124 0
115 33 0
-115 -33 0
39 124 0
-39 -124 0
109 103 0
-109 -103 0
136 37 0
-136 -37 0
91 57 0
-91 -57 0
78 126 0
-78 -126 0
1 37 0
-1 -37 0
131 33 0
-131 -33 0
133 67 0
-133 -67 0
74 42 0
-74 -42 0
71 88 0
-71 -88 0
94 29 0
-94 -29 0
96 12 0
-96 -12 0
52 61 0
-52 -61 0
45 98 0
-45 -98 0
74 108 0
-74 -108 0
23 30 0
-23 -30 0
125 130 0
-125 -130 0
22 140 0
-22 -140 0
76 57 0
-76 -57 0
112 41 0
-112 -41 0
115 14 0
-115 -14 0
96 40 0
-96 -40 0
137 115 0
-137 -115 0
25 105 0
-25 -105 0
89 67 0
-89 -67 0
64 92 0
-64 -92 0
97 140 0
-97 -140 0
115 84 0
-115 -84 0
26 75 0
-26 -75 0
111 47 0
-111 -47 0
19 58 0
-19 -58 0
53 59 0
-53 -59 0
25 17 0
-25 -17 0
129 105 0
-129 -105 0
53 91 0
-53 -91 0
85 93 0
-85 -93 0
84 51 0
-84 -51 0
50 117 0
-50 -117 0
70 33 0
-70 -33 0
96 9 0
-96 -9 0
76 17 0
-76 -17 0
56 42 0
-56 -42 0
29 59 0
-29 -59 0
48 72 0
-48 -72 0
50 61 0
-50 -61 0
107 113 0
-107 -113 0
82 130 0
-82 -130 0
107 59 0
-107 -59 0
65 7 0
-65 -7 0
74 119 0
-74 -119 0
85 117 0
-85 -117 0
35 84 0
-35 -84 0
63 134 0
-63 -134 0
110 16 0
-110 -16 0
107 136 0
-107 -136 0
16 57 0
-16 -57 0
27 33 0
-27 -33 0
74 63 0
-74 -63 0
135 76 0
-135 -76 0
94 64 0
-94 -64 0
113 17 0
-113 -17 0
15 130 0
-15 -130 0
42 104 0
-42 -104 0
32 40 0
-32 -40 0
38 47 0
-38 -47 0
106 81 0
-106 -81 0
25 93 0
-25 -93 0
118 116 0
-118 -116 0
10 103 0
-10 -103 0
39 17 0
-39 -17 0
112 114 0
-112 -114 0
84 136 0
-84 -136 0
43 134 0
-43 -134 0
112 108 0
-112 -108 0
10 60 0
-10 -60 0
66 49 0
-66 -49 0
45 13 0
-45 -13 0
100 97 0
-100 -97 0
96 59 0
-96 -59 0
123 81 0
-123 -81 0
138 125 0
-138 -125 0
44 112 0
-44 -112 0
26 56 0
-26 -56 0
55 105 0
-55 -105 0
78 6 0
-78 -6 0
20 63 0
-20 -63 0
31 8 0
-31 -8 0
79 100 0
-79 -100 0
46 78 0
-46 -78 0
23 86 0
-23 -86 0
127 133 0
-127 -133 0
79 67 0
-79 -67 0
