FourierSAT_Github_AIJ/res/fs_1core/maxcut-140-630-0.8-18.cnf.txt
o 211
o 200
o 198
o 196
o 192
